6694282656507708438505,13,1,2,04,5,1,2,02,10,1,2,09,10,1,2,012,15,1,2,015,2,1,2,02,7,1,2,08,13,1,2,08,14,1,2,013,6,1,2,07,6,1,2,04,11,1,2,04,8,1,2,03,6,1,2,011,9,1,2,012,11,1,2,05,10,1,2,010,11,1,2,07,1,1,2,013,15,1,2,013,14,1,2,09,12,1,2,06,9,1,2,05,13,1,2,013,5,1,2,012,4,1,2,02,1,1,2,012,6,1,2,03,9,1,2,08,4,1,2,015,5,1,2,03,7,1,2,06,10,1,2,014,10,1,2,07,4,1,2,010,3,1,2,015,15,1,2,06,3,1,2,06,12,1,2,02,6,1,2,06,15,1,2,015,15,1,2,09,5,1,2,06,6,1,2,012,5,1,2,02,13,1,2,08,13,1,2,010,7,1,2,010,6,1,2,02,4,1,2,0